NAME : XML100_1356_15
DIMENSION : 101
NB_CLUSTERS : 15
CLUSTERING_ALG : DBSCAN
CLUSTERING_PARAMS : eps(85), minSamples(3)
CLUSTERS
1 0
2 1 6 8 9 12 15 17 23 24 25 27 34 35 36 37 44 45 48 49 50 51 53 54 56 58 59 63 64 66 67 68 71 73 76 77 80 81 84 85 92 96 99
3 3 4 18 21 41 82 93
4 5 10 16 29 39 42 52 70 75 78 83 100
5 13 33 55 60 98
6 20 32 47 57 97
7 11 26 30 79
8 2 72 74 88 94
9 7 19 38 43
10 61 65
11 46 69 86 87
12 22 40
13 14 31 89
14 90 91 95
15 28 62
EOF